(set-info :smt-lib-version 2.6)
(set-logic QF_ALIA)
(set-info :notes "Adapted for Array Sum evaluation.
Base file: piVC_ed9849.smt2")
(set-info :source |pvc|)
(set-info :category "industrial")
(declare-fun length5 () Int)
(declare-fun length4 () Int)
(declare-fun length3 () Int)
(declare-fun length2 () Int)
(declare-fun length1 () Int)
(declare-fun e () Int)
(declare-fun a2_0 () (Array Int Int))
(declare-fun a1_0 () (Array Int Int))
(declare-fun buf () (Array Int Int))
(declare-fun k () Int)
(declare-fun a2 () (Array Int Int))
(declare-fun i2 () Int)
(declare-fun a1 () (Array Int Int))
(declare-fun i1 () Int)
(declare-fun ix_1 () Int)
(declare-fun ix_2 () Int)
(declare-fun ix_3 () Int)
(assert (let ((?v_6 (select a1_0 ix_3)) (?v_5 (select a1_0 ix_2)) (?v_11 (select a1_0 ix_1)) (?v_14 (select a1_0 i2)) (?v_17 (select a1_0 i1)) (?v_34 (select a2_0 ix_3)) (?v_33 (select a2_0 ix_2)) (?v_38 (select a2_0 ix_1)) (?v_41 (select a2_0 i2)) (?v_44 (select a2_0 i1)) (?v_89 (select a1 ix_3)) (?v_91 (select a1 ix_2)) (?v_92 (select a1 ix_1)) (?v_93 (select a1 i2)) (?v_67 (select a1 i1)) (?v_94 (select a2 ix_3)) (?v_95 (select a2 ix_2)) (?v_96 (select a2 ix_1)) (?v_70 (select a2 i2)) (?v_98 (select a2 i1)) (?v_88 (select buf ix_3)) (?v_80 (select buf ix_2)) (?v_82 (select buf ix_1)) (?v_84 (select buf i2)) (?v_86 (select buf i1)) (?v_97 (< 0 1)) (?v_4 (* (- 1) ix_3))) (let ((?v_0 (< 0 ?v_4)) (?v_3 (* (- 1) ix_2))) (let ((?v_26 (< 0 (+ ?v_3 ix_3))) (?v_1 (* (- 1) length1))) (let ((?v_20 (< 0 (+ ?v_1 1 ix_2))) (?v_2 (* (- 1) ?v_6)) (?v_8 (* (- 1) ix_1))) (let ((?v_27 (< 0 (+ ?v_8 ix_3))) (?v_9 (< 0 (+ ?v_1 1 ix_1))) (?v_12 (* (- 1) i2))) (let ((?v_30 (< 0 (+ ?v_12 ix_3))) (?v_13 (< 0 (+ ?v_1 1 i2))) (?v_15 (* (- 1) i1))) (let ((?v_31 (< 0 (+ ?v_15 ix_3))) (?v_16 (< 0 (+ ?v_1 1 i1))) (?v_7 (< 0 ?v_3)) (?v_32 (< 0 (+ ?v_4 ix_2))) (?v_18 (< 0 (+ ?v_1 1 ix_3))) (?v_10 (* (- 1) ?v_5)) (?v_35 (< 0 (+ ?v_8 ix_2))) (?v_39 (< 0 (+ ?v_12 ix_2))) (?v_42 (< 0 (+ ?v_15 ix_2))) (?v_19 (< 0 ?v_8)) (?v_45 (< 0 (+ ?v_4 ix_1))) (?v_21 (* (- 1) ?v_11)) (?v_47 (< 0 (+ ?v_3 ix_1))) (?v_50 (< 0 (+ ?v_12 ix_1))) (?v_51 (< 0 (+ ?v_15 ix_1))) (?v_22 (< 0 ?v_12)) (?v_52 (< 0 (+ ?v_4 i2))) (?v_23 (* (- 1) ?v_14)) (?v_53 (< 0 (+ ?v_3 i2))) (?v_55 (< 0 (+ ?v_8 i2))) (?v_56 (< 0 (+ ?v_15 i2))) (?v_24 (< 0 ?v_15)) (?v_57 (< 0 (+ ?v_4 i1))) (?v_25 (* (- 1) ?v_17)) (?v_58 (< 0 (+ ?v_3 i1))) (?v_60 (< 0 (+ ?v_8 i1))) (?v_61 (< 0 (+ ?v_12 i1))) (?v_28 (* (- 1) length2))) (let ((?v_48 (< 0 (+ ?v_28 1 ix_2))) (?v_29 (* (- 1) ?v_34)) (?v_36 (< 0 (+ ?v_28 1 ix_1))) (?v_40 (< 0 (+ ?v_28 1 i2))) (?v_43 (< 0 (+ ?v_28 1 i1))) (?v_46 (< 0 (+ ?v_28 1 ix_3))) (?v_37 (* (- 1) ?v_33)) (?v_49 (* (- 1) ?v_38)) (?v_54 (* (- 1) ?v_41)) (?v_59 (* (- 1) ?v_44))) (let ((?v_102 (and (and (and (and (and (and (and (and (and (and (and (and (and (and (and (and (and (and (and (and (and (or (or ?v_0 (or ?v_26 ?v_20)) (<= 0 (+ ?v_2 ?v_5))) (or (or ?v_0 (or ?v_27 ?v_9)) (<= 0 (+ ?v_2 ?v_11)))) (or (or ?v_0 (or ?v_30 ?v_13)) (<= 0 (+ ?v_2 ?v_14)))) (or (or ?v_0 (or ?v_31 ?v_16)) (<= 0 (+ ?v_2 ?v_17)))) (or (or ?v_7 (or ?v_32 ?v_18)) (<= 0 (+ ?v_10 ?v_6)))) (or (or ?v_7 (or ?v_35 ?v_9)) (<= 0 (+ ?v_10 ?v_11)))) (or (or ?v_7 (or ?v_39 ?v_13)) (<= 0 (+ ?v_10 ?v_14)))) (or (or ?v_7 (or ?v_42 ?v_16)) (<= 0 (+ ?v_10 ?v_17)))) (or (or ?v_19 (or ?v_45 ?v_18)) (<= 0 (+ ?v_21 ?v_6)))) (or (or ?v_19 (or ?v_47 ?v_20)) (<= 0 (+ ?v_21 ?v_5)))) (or (or ?v_19 (or ?v_50 ?v_13)) (<= 0 (+ ?v_21 ?v_14)))) (or (or ?v_19 (or ?v_51 ?v_16)) (<= 0 (+ ?v_21 ?v_17)))) (or (or ?v_22 (or ?v_52 ?v_18)) (<= 0 (+ ?v_23 ?v_6)))) (or (or ?v_22 (or ?v_53 ?v_20)) (<= 0 (+ ?v_23 ?v_5)))) (or (or ?v_22 (or ?v_55 ?v_9)) (<= 0 (+ ?v_23 ?v_11)))) (or (or ?v_22 (or ?v_56 ?v_16)) (<= 0 (+ ?v_23 ?v_17)))) (or (or ?v_24 (or ?v_57 ?v_18)) (<= 0 (+ ?v_25 ?v_6)))) (or (or ?v_24 (or ?v_58 ?v_20)) (<= 0 (+ ?v_25 ?v_5)))) (or (or ?v_24 (or ?v_60 ?v_9)) (<= 0 (+ ?v_25 ?v_11)))) (or (or ?v_24 (or ?v_61 ?v_13)) (<= 0 (+ ?v_25 ?v_14)))) (and (and (and (and (and (and (and (and (and (and (and (and (and (and (and (and (and (and (and (or (or ?v_0 (or ?v_26 ?v_48)) (<= 0 (+ ?v_29 ?v_33))) (or (or ?v_0 (or ?v_27 ?v_36)) (<= 0 (+ ?v_29 ?v_38)))) (or (or ?v_0 (or ?v_30 ?v_40)) (<= 0 (+ ?v_29 ?v_41)))) (or (or ?v_0 (or ?v_31 ?v_43)) (<= 0 (+ ?v_29 ?v_44)))) (or (or ?v_7 (or ?v_32 ?v_46)) (<= 0 (+ ?v_37 ?v_34)))) (or (or ?v_7 (or ?v_35 ?v_36)) (<= 0 (+ ?v_37 ?v_38)))) (or (or ?v_7 (or ?v_39 ?v_40)) (<= 0 (+ ?v_37 ?v_41)))) (or (or ?v_7 (or ?v_42 ?v_43)) (<= 0 (+ ?v_37 ?v_44)))) (or (or ?v_19 (or ?v_45 ?v_46)) (<= 0 (+ ?v_49 ?v_34)))) (or (or ?v_19 (or ?v_47 ?v_48)) (<= 0 (+ ?v_49 ?v_33)))) (or (or ?v_19 (or ?v_50 ?v_40)) (<= 0 (+ ?v_49 ?v_41)))) (or (or ?v_19 (or ?v_51 ?v_43)) (<= 0 (+ ?v_49 ?v_44)))) (or (or ?v_22 (or ?v_52 ?v_46)) (<= 0 (+ ?v_54 ?v_34)))) (or (or ?v_22 (or ?v_53 ?v_48)) (<= 0 (+ ?v_54 ?v_33)))) (or (or ?v_22 (or ?v_55 ?v_36)) (<= 0 (+ ?v_54 ?v_38)))) (or (or ?v_22 (or ?v_56 ?v_43)) (<= 0 (+ ?v_54 ?v_44)))) (or (or ?v_24 (or ?v_57 ?v_46)) (<= 0 (+ ?v_59 ?v_34)))) (or (or ?v_24 (or ?v_58 ?v_48)) (<= 0 (+ ?v_59 ?v_33)))) (or (or ?v_24 (or ?v_60 ?v_36)) (<= 0 (+ ?v_59 ?v_38)))) (or (or ?v_24 (or ?v_61 ?v_40)) (<= 0 (+ ?v_59 ?v_41))))) (and (<= 0 length2) (<= 0 length1)))) (?v_63 (* (- 1) length4))) (let ((?v_65 (+ ?v_63 i1)) (?v_66 (* (- 1) k))) (let ((?v_62 (+ ?v_66 length5)) (?v_64 (* (- 1) length3)) (?v_87 (< 0 (+ ?v_66 1 ix_3)))) (let ((?v_68 (or ?v_0 ?v_87)) (?v_69 (* (- 1) ?v_88)) (?v_79 (< 0 (+ ?v_66 1 ix_2)))) (let ((?v_71 (or ?v_7 ?v_79)) (?v_72 (* (- 1) ?v_80)) (?v_81 (< 0 (+ ?v_66 1 ix_1)))) (let ((?v_73 (or ?v_19 ?v_81)) (?v_74 (* (- 1) ?v_82)) (?v_83 (< 0 (+ ?v_66 1 i2)))) (let ((?v_75 (or ?v_22 ?v_83)) (?v_76 (* (- 1) ?v_84)) (?v_85 (< 0 (+ ?v_66 1 i1)))) (let ((?v_77 (or ?v_24 ?v_85)) (?v_78 (* (- 1) ?v_86)) (?v_90 (* (- 1) e))) (let ((?v_100 (= 0 (+ ?v_90 ?v_91))) (?v_101 (= 0 (+ ?v_90 ?v_96))) (?v_99 (= 0 (+ ?v_90 ?v_88)))) (and (and ?v_102 (and (<= 0 ?v_65) (and (< 0 ?v_62) (and (and (<= 0 i1) (and (<= 0 (+ ?v_15 length4)) (and (<= 0 i2) (and (<= 0 (+ ?v_12 length3)) (and (<= 0 k) (and (<= 0 ?v_62) (and (= 0 (+ ?v_15 ?v_12 k)) (and (= 0 (+ ?v_63 ?v_64 length5)) (and (= 0 (+ ?v_1 length4)) (and (= 0 (+ ?v_28 length3)) (and (and (and (and (and (or (or ?v_0 (< 0 (+ ?v_63 1 ix_3))) (= 0 (+ ?v_2 ?v_89))) (or (or ?v_7 (< 0 (+ ?v_63 1 ix_2))) (= 0 (+ ?v_10 ?v_91)))) (or (or ?v_19 (< 0 (+ ?v_63 1 ix_1))) (= 0 (+ ?v_21 ?v_92)))) (or (or ?v_22 (< 0 (+ ?v_63 1 i2))) (= 0 (+ ?v_23 ?v_93)))) (or (or ?v_24 (< 0 (+ ?v_63 1 i1))) (= 0 (+ ?v_25 ?v_67)))) (and (and (and (and (and (or (or ?v_0 (< 0 (+ ?v_64 1 ix_3))) (= 0 (+ ?v_29 ?v_94))) (or (or ?v_7 (< 0 (+ ?v_64 1 ix_2))) (= 0 (+ ?v_37 ?v_95)))) (or (or ?v_19 (< 0 (+ ?v_64 1 ix_1))) (= 0 (+ ?v_49 ?v_96)))) (or (or ?v_22 (< 0 (+ ?v_64 1 i2))) (= 0 (+ ?v_54 ?v_70)))) (or (or ?v_24 (< 0 (+ ?v_64 1 i1))) (= 0 (+ ?v_59 ?v_98)))) (and (or (= 0 ?v_65) (and (and (and (and (or ?v_68 (<= 0 (+ ?v_69 ?v_67))) (or ?v_71 (<= 0 (+ ?v_72 ?v_67)))) (or ?v_73 (<= 0 (+ ?v_74 ?v_67)))) (or ?v_75 (<= 0 (+ ?v_76 ?v_67)))) (or ?v_77 (<= 0 (+ ?v_78 ?v_67))))) (and (or (= 0 (+ ?v_64 i2)) (and (and (and (and (or ?v_68 (<= 0 (+ ?v_69 ?v_70))) (or ?v_71 (<= 0 (+ ?v_72 ?v_70)))) (or ?v_73 (<= 0 (+ ?v_74 ?v_70)))) (or ?v_75 (<= 0 (+ ?v_76 ?v_70)))) (or ?v_77 (<= 0 (+ ?v_78 ?v_70))))) (and (and (and (and (and (and (and (and (and (and (and (and (and (and (and (and (and (and (and (and (or (or ?v_0 (or ?v_26 ?v_79)) (<= 0 (+ ?v_69 ?v_80))) (or (or ?v_0 (or ?v_27 ?v_81)) (<= 0 (+ ?v_69 ?v_82)))) (or (or ?v_0 (or ?v_30 ?v_83)) (<= 0 (+ ?v_69 ?v_84)))) (or (or ?v_0 (or ?v_31 ?v_85)) (<= 0 (+ ?v_69 ?v_86)))) (or (or ?v_7 (or ?v_32 ?v_87)) (<= 0 (+ ?v_72 ?v_88)))) (or (or ?v_7 (or ?v_35 ?v_81)) (<= 0 (+ ?v_72 ?v_82)))) (or (or ?v_7 (or ?v_39 ?v_83)) (<= 0 (+ ?v_72 ?v_84)))) (or (or ?v_7 (or ?v_42 ?v_85)) (<= 0 (+ ?v_72 ?v_86)))) (or (or ?v_19 (or ?v_45 ?v_87)) (<= 0 (+ ?v_74 ?v_88)))) (or (or ?v_19 (or ?v_47 ?v_79)) (<= 0 (+ ?v_74 ?v_80)))) (or (or ?v_19 (or ?v_50 ?v_83)) (<= 0 (+ ?v_74 ?v_84)))) (or (or ?v_19 (or ?v_51 ?v_85)) (<= 0 (+ ?v_74 ?v_86)))) (or (or ?v_22 (or ?v_52 ?v_87)) (<= 0 (+ ?v_76 ?v_88)))) (or (or ?v_22 (or ?v_53 ?v_79)) (<= 0 (+ ?v_76 ?v_80)))) (or (or ?v_22 (or ?v_55 ?v_81)) (<= 0 (+ ?v_76 ?v_82)))) (or (or ?v_22 (or ?v_56 ?v_85)) (<= 0 (+ ?v_76 ?v_86)))) (or (or ?v_24 (or ?v_57 ?v_87)) (<= 0 (+ ?v_78 ?v_88)))) (or (or ?v_24 (or ?v_58 ?v_79)) (<= 0 (+ ?v_78 ?v_80)))) (or (or ?v_24 (or ?v_60 ?v_81)) (<= 0 (+ ?v_78 ?v_82)))) (or (or ?v_24 (or ?v_61 ?v_83)) (<= 0 (+ ?v_78 ?v_84)))) (and (or (and (and (and (and (and (or (or ?v_0 (< 0 (+ ?v_15 1 ix_3))) (not (= 0 (+ ?v_90 ?v_89)))) (or (or ?v_7 (< 0 (+ ?v_15 1 ix_2))) (not ?v_100))) (or (or ?v_19 (< 0 (+ ?v_15 1 ix_1))) (not (= 0 (+ ?v_90 ?v_92))))) (or (or ?v_22 (< 0 (+ ?v_15 1 i2))) (not (= 0 (+ ?v_90 ?v_93))))) (or (or ?v_24 ?v_97) (not (= 0 (+ ?v_90 ?v_67))))) (and (and (and (and (or (or ?v_0 (< 0 (+ ?v_12 1 ix_3))) (not (= 0 (+ ?v_90 ?v_94)))) (or (or ?v_7 (< 0 (+ ?v_12 1 ix_2))) (not (= 0 (+ ?v_90 ?v_95))))) (or (or ?v_19 (< 0 (+ ?v_12 1 ix_1))) (not ?v_101))) (or (or ?v_22 ?v_97) (not (= 0 (+ ?v_90 ?v_70))))) (or (or ?v_24 (< 0 (+ ?v_12 1 i1))) (not (= 0 (+ ?v_90 ?v_98)))))) (and (and (<= 0 ix_3) (<= 0 (+ ?v_4 k (- 1)))) ?v_99)) (or (and (and (and (and (or ?v_68 (not ?v_99)) (or ?v_71 (not (= 0 (+ ?v_90 ?v_80))))) (or ?v_73 (not (= 0 (+ ?v_90 ?v_82))))) (or ?v_75 (not (= 0 (+ ?v_90 ?v_84))))) (or ?v_77 (not (= 0 (+ ?v_90 ?v_86))))) (or (and (and (<= 0 ix_2) (<= 0 (+ ?v_3 i1 (- 1)))) ?v_100) (and (and (<= 0 ix_1) (<= 0 (+ ?v_8 i2 (- 1)))) ?v_101))))))))))))))))))) ?v_102)))) (< 0 (+ ?v_12 (- 1))))))))))))))))))))))
; --- Injected Array Sum Constraint ---
(assert (sum a1_0 (+ ix_2 (+ ix_1 length4))))
(assert (sum a1_0 (+ i2 (+ length5 i1))))
(assert (sum a2_0 (+ ix_2 (+ e k))))
(check-sat)
(exit)